\ENCODING=ISO-8859-1
\Problem name: 
 -- Set Cover Location Problem -- 

Minimize
 obj: x100001 + x100002 + x100003 + x100004 + x100005 + x100006 + x100007
      + x100008
Subject To
 c1: x100003 + x100004 + x100006 + x100007 >= 1
 c2: x100001 + x100005 >= 1
 c3: x100005 >= 1
 c4: x100002 + x100003 >= 1
 c5: x100003 >= 1
 c6: x100002 + x100005 >= 1
 c7: x100001 + x100008 >= 1
 c8: x100001 >= 1
Bounds
 0 <= x100001 <= 1
 0 <= x100002 <= 1
 0 <= x100003 <= 1
 0 <= x100004 <= 1
 0 <= x100005 <= 1
 0 <= x100006 <= 1
 0 <= x100007 <= 1
 0 <= x100008 <= 1
Binaries
 x100001  x100002  x100003  x100004  x100005  x100006  x100007  x100008 
End
